Problem:    
Rows:       256
Columns:    89 (72 integer, 72 binary)
Non-zeros:  960
Status:     INTEGER OPTIMAL
Objective:  value = 41.804923 (MINimum)

   No.   Row name        Activity     Lower bound   Upper bound
------ ------------    ------------- ------------- -------------
     1 r.5                   41.8049             0               
     2 r.6                   25.4589       -992.65               
     3 r.7                    1041.8             0               
     4 r.8                  -974.541      -992.739               
     5 r.9                   41.8049             0               
     6 r.10                  22.4859      -992.185               
     7 r.11                   1041.8             0               
     8 r.12                 -982.268      -992.296               
     9 r.13                   1041.8             0               
    10 r.14                 -977.956       -986.49               
    11 r.15                  41.8049             0               
    12 r.16                  22.0441      -988.225               
    13 r.17                   1041.8             0               
    14 r.18                 -991.466      -993.183               
    15 r.19                  41.8049             0               
    16 r.20                  8.53402      -992.898               
    17 r.21                  41.8049             0               
    18 r.22                  22.4859      -993.444               
    19 r.23                   1041.8             0               
    20 r.24                 -990.438        -993.8               
    21 r.25                   1041.8             0               
    22 r.26                 -999.608      -999.608               
    23 r.27                  41.8049             0               
    24 r.28                 -994.807      -994.807               
    25 r.29                  41.8049             0               
    26 r.30                  41.8049      -980.068               
    27 r.31                   1041.8             0               
    28 r.32                 -958.195      -983.654               
    29 r.33                   1041.8             0               
    30 r.34                 -958.195      -980.239               
    31 r.35                  41.8049             0               
    32 r.36                  41.8049      -983.833               
    33 r.37                        1             1             = 
    34 r.38                        1             1             = 
    35 r.39                        1             1             = 
    36 r.40                        1             1             = 
    37 r.41                        1             1             = 
    38 r.42                        1             1             = 
    39 r.43                        1             1             = 
    40 r.44                        1             1             = 
    41 r.45                     1000             2               
    42 r.46                    -1000         -1001               
    43 r.47                  1997.03      -992.185               
    44 r.48                        2             2               
    45 r.49                       -2         -1001               
    46 r.50                 -7.72686      -992.296               
    47 r.51                     1001             2               
    48 r.52                    -1001         -1001               
    49 r.53                  1996.59       -986.49               
    50 r.54                     1001             2               
    51 r.55                    -1001         -1001               
    52 r.56                  1996.59      -988.225               
    53 r.57                     1001             2               
    54 r.58                    -1001         -1001               
    55 r.59                  1983.08      -993.183               
    56 r.60                     1001             2               
    57 r.61                    -1001         -1001               
    58 r.62                  1983.08      -992.898               
    59 r.63                     1000             2               
    60 r.64                    -1000         -1001               
    61 r.65                  1997.03      -993.444               
    62 r.66                        2             2               
    63 r.67                       -2         -1001               
    64 r.68                 -15.8974        -993.8               
    65 r.69                  23.7415       -992.65               
    66 r.70                 -976.258      -992.739               
    67 r.71                  1021.66       -992.65               
    68 r.72                  21.6646      -992.739               
    69 r.73                   16.346      -980.068               
    70 r.74                 -983.654      -983.654               
    71 r.75                   16.346      -980.068               
    72 r.76                 -983.654      -983.654               
    73 r.77                     1001             2               
    74 r.78                    -1001         -1001               
    75 r.79                  2016.35      -980.239               
    76 r.80                     1001             2               
    77 r.81                    -1001         -1001               
    78 r.82                  2016.35      -983.833               
    79 r.83                     1000             2               
    80 r.84                    -1000         -1001               
    81 r.85                  2003.41       7.34973               
    82 r.86                        2             2               
    83 r.87                       -2         -1001               
    84 r.88                  7.26053       7.26053               
    85 r.89                     1001             2               
    86 r.90                    -1001         -1001               
    87 r.91                     2000       -986.49               
    88 r.92                     1001             2               
    89 r.93                    -1001         -1001               
    90 r.94                  2003.85      -988.225               
    91 r.95                     1001             2               
    92 r.96                    -1001         -1001               
    93 r.97                  1986.49      -993.183               
    94 r.98                     1001             2               
    95 r.99                    -1001         -1001               
    96 r.100                 1990.34      -992.898               
    97 r.101                    1000             2               
    98 r.102                   -1000         -1001               
    99 r.103                 2000.44      -993.444               
   100 r.104                       2             2               
   101 r.105                      -2         -1001               
   102 r.106                -8.63692        -993.8               
   103 r.107                 20.7684      -992.185               
   104 r.108                -983.985      -992.296               
   105 r.109                 1018.69      -992.185               
   106 r.110                 13.9377      -992.296               
   107 r.111                    1000             2               
   108 r.112                   -1000         -1001               
   109 r.113                 2019.76      -980.068               
   110 r.114                       2             2               
   111 r.115                      -2         -1001               
   112 r.116                -976.393      -983.654               
   113 r.117                -980.239      -980.239               
   114 r.118                 19.7608      -983.833               
   115 r.119                -976.393      -980.239               
   116 r.120                 23.6065      -983.833               
   117 r.121                    1001             2               
   118 r.122                   -1001         -1001               
   119 r.123                 2003.41       7.34973               
   120 r.124                    1001             2               
   121 r.125                   -1001         -1001               
   122 r.126                 2003.41       7.26053               
   123 r.127                    1001             2               
   124 r.128                   -1001         -1001               
   125 r.129                 2000.44        7.8153               
   126 r.130                    1001             2               
   127 r.131                   -1001         -1001               
   128 r.132                 1995.69       7.70427               
   129 r.133                 -986.49       -986.49               
   130 r.134                 13.5101      -988.225               
   131 r.135                 -986.49       -986.49               
   132 r.136                 13.5101      -988.225               
   133 r.137                    1001             2               
   134 r.138                   -1001         -1001               
   135 r.139                 2000.44      -993.444               
   136 r.140                    1001             2               
   137 r.141                   -1001         -1001               
   138 r.142                 1987.52        -993.8               
   139 r.143                -979.673       -986.49               
   140 r.144                 20.3267      -988.225               
   141 r.145                 18.2498       -986.49               
   142 r.146                 1018.25      -988.225               
   143 r.147                    1001             2               
   144 r.148                   -1001         -1001               
   145 r.149                 2019.76      -980.068               
   146 r.150                    1001             2               
   147 r.151                   -1001         -1001               
   148 r.152                 2019.76      -983.654               
   149 r.153                -980.239      -980.239               
   150 r.154                 19.7608      -983.833               
   151 r.155                -980.239      -980.239               
   152 r.156                 19.7608      -983.833               
   153 r.157                    1001             2               
   154 r.158                   -1001         -1001               
   155 r.159                 2016.92       7.34973               
   156 r.160                    1001             2               
   157 r.161                   -1001         -1001               
   158 r.162                 2016.92       7.26053               
   159 r.163                    1001             2               
   160 r.164                   -1001         -1001               
   161 r.165                 2013.95        7.8153               
   162 r.166                    1001             2               
   163 r.167                   -1001         -1001               
   164 r.168                  2009.2       7.70427               
   165 r.169                    1001             2               
   166 r.170                   -1001         -1001               
   167 r.171                 2013.95      -993.444               
   168 r.172                    1001             2               
   169 r.173                   -1001         -1001               
   170 r.174                 2001.03        -993.8               
   171 r.175                -993.183      -993.183               
   172 r.176                  6.8166      -992.898               
   173 r.177                 4.73967      -993.183               
   174 r.178                 1004.74      -992.898               
   175 r.179                    1001             2               
   176 r.180                   -1001         -1001               
   177 r.181                 2033.27      -980.068               
   178 r.182                    1001             2               
   179 r.183                   -1001         -1001               
   180 r.184                 2033.27      -983.654               
   181 r.185                -966.729      -980.239               
   182 r.186                 33.2709      -983.833               
   183 r.187                -966.729      -980.239               
   184 r.188                 33.2709      -983.833               
   185 r.189                    1000             2               
   186 r.190                   -1000         -1001               
   187 r.191                 2003.41       7.34973               
   188 r.192                       2             2               
   189 r.193                      -2         -1001               
   190 r.194                 15.4311       7.26053               
   191 r.195                    1000             2               
   192 r.196                   -1000         -1001               
   193 r.197                 2000.44        7.8153               
   194 r.198                       2             2               
   195 r.199                      -2         -1001               
   196 r.200                 7.70427       7.70427               
   197 r.201                    1001             2               
   198 r.202                   -1001         -1001               
   199 r.203                    2000       13.5101               
   200 r.204                    1001             2               
   201 r.205                   -1001         -1001               
   202 r.206                 2012.02       11.7746               
   203 r.207                    1001             2               
   204 r.208                   -1001         -1001               
   205 r.209                 1986.49        6.8166               
   206 r.210                    1001             2               
   207 r.211                   -1001         -1001               
   208 r.212                 1998.51       7.10199               
   209 r.213                 20.7684      -993.444               
   210 r.214                -992.156        -993.8               
   211 r.215                 1018.69      -993.444               
   212 r.216                 5.76715        -993.8               
   213 r.217                 19.7608      -980.068               
   214 r.218                -980.239      -983.654               
   215 r.219                 31.7771      -980.068               
   216 r.220                -968.223      -983.654               
   217 r.221                -980.239      -980.239               
   218 r.222                 19.7608      -983.833               
   219 r.223                -968.223      -980.239               
   220 r.224                 31.7771      -983.833               
   221 r.225                    1000             2               
   222 r.226                   -1000         -1001               
   223 r.227                 1980.68        7.8153               
   224 r.228                       2             2               
   225 r.229                      -2         -1001               
   226 r.230                 975.927       7.70427               
   227 r.231                    1001             2               
   228 r.232                   -1001         -1001               
   229 r.233                 1980.24       13.5101               
   230 r.234                    1001             2               
   231 r.235                   -1001         -1001               
   232 r.236                 1980.24       11.7746               
   233 r.237                    1001             2               
   234 r.238                   -1001         -1001               
   235 r.239                 1966.73        6.8166               
   236 r.240                    1001             2               
   237 r.241                   -1001         -1001               
   238 r.242                 1966.73       7.10199               
   239 r.243                    1001             2               
   240 r.244                   -1001         -1001               
   241 r.245                    2000      -980.239               
   242 r.246                    1001             2               
   243 r.247                   -1001         -1001               
   244 r.248                    2000      -983.833               
   245 r.249                    1001             2               
   246 r.250                   -1001         -1001               
   247 r.251                 1983.65       7.34973               
   248 r.252                    1001             2               
   249 r.253                   -1001         -1001               
   250 r.254                 1983.65       7.26053               
   251 r.255                    1001             2               
   252 r.256                   -1001         -1001               
   253 r.257                    2000       19.9321               
   254 r.258                    1001             2               
   255 r.259                   -1001         -1001               
   256 r.260                    2000        16.346               

   No. Column name       Activity     Lower bound   Upper bound
------ ------------    ------------- ------------- -------------
     1 tt                    41.8049             0               
     2 s_1_1        *              0             0             1 
     3 t_1_1                  16.346             0               
     4 s_1_7        *              0             0             1 
     5 s_2_1        *              1             0             1 
     6 t_2_1                  16.346             0               
     7 s_2_7        *              1             0             1 
     8 s_1_2        *              0             0             1 
     9 t_1_2                 19.7608             0               
    10 s_1_8        *              1             0             1 
    11 s_2_2        *              1             0             1 
    12 t_2_2                 23.6065             0               
    13 s_2_8        *              0             0             1 
    14 s_1_3        *              1             0             1 
    15 t_1_3                 19.7608             0               
    16 s_2_3        *              0             0             1 
    17 t_2_3                 19.7608             0               
    18 s_1_4        *              1             0             1 
    19 t_1_4                 33.2709             0               
    20 s_2_4        *              0             0             1 
    21 t_2_4                 33.2709             0               
    22 s_1_5        *              0             0             1 
    23 t_1_5                 19.7608             0               
    24 s_2_5        *              1             0             1 
    25 t_2_5                 31.7771             0               
    26 s_1_6        *              1             0             1 
    27 t_1_6                 40.0875             0               
    28 s_2_6        *              0             0             1 
    29 t_2_6                 1038.01             0               
    30 t_1_7                       0             0               
    31 t_2_7                       0             0               
    32 t_1_8                       0             0               
    33 t_2_8                       0             0               
    34 r_1_1_2      *              1             0             1 
    35 u_1_1_2      *              0             0             1 
    36 r_2_1_2      *              0             0             1 
    37 u_2_1_2      *              0             0             1 
    38 r_1_1_3      *              1             0             1 
    39 u_1_1_3      *              0             0             1 
    40 r_2_1_3      *              1             0             1 
    41 u_2_1_3      *              0             0             1 
    42 r_1_1_4      *              1             0             1 
    43 u_1_1_4      *              0             0             1 
    44 r_2_1_4      *              1             0             1 
    45 u_2_1_4      *              0             0             1 
    46 r_1_1_5      *              1             0             1 
    47 u_1_1_5      *              0             0             1 
    48 r_2_1_5      *              0             0             1 
    49 u_2_1_5      *              0             0             1 
    50 r_1_1_8      *              1             0             1 
    51 u_1_1_8      *              0             0             1 
    52 r_2_1_8      *              1             0             1 
    53 u_2_1_8      *              0             0             1 
    54 r_1_2_3      *              1             0             1 
    55 u_1_2_3      *              0             0             1 
    56 r_2_2_3      *              1             0             1 
    57 u_2_2_3      *              0             0             1 
    58 r_1_2_4      *              1             0             1 
    59 u_1_2_4      *              0             0             1 
    60 r_2_2_4      *              1             0             1 
    61 u_2_2_4      *              0             0             1 
    62 r_1_2_5      *              1             0             1 
    63 u_1_2_5      *              0             0             1 
    64 r_2_2_5      *              0             0             1 
    65 u_2_2_5      *              0             0             1 
    66 r_1_2_7      *              1             0             1 
    67 u_1_2_7      *              0             0             1 
    68 r_2_2_7      *              0             0             1 
    69 u_2_2_7      *              1             0             1 
    70 r_1_3_5      *              1             0             1 
    71 u_1_3_5      *              0             0             1 
    72 r_2_3_5      *              1             0             1 
    73 u_2_3_5      *              0             0             1 
    74 r_1_3_7      *              1             0             1 
    75 u_1_3_7      *              0             0             1 
    76 r_2_3_7      *              1             0             1 
    77 u_2_3_7      *              0             0             1 
    78 r_1_4_5      *              1             0             1 
    79 u_1_4_5      *              0             0             1 
    80 r_2_4_5      *              1             0             1 
    81 u_2_4_5      *              0             0             1 
    82 r_1_4_7      *              1             0             1 
    83 u_1_4_7      *              0             0             1 
    84 r_2_4_7      *              1             0             1 
    85 u_2_4_7      *              0             0             1 
    86 r_1_7_8      *              1             0             1 
    87 u_1_7_8      *              0             0             1 
    88 r_2_7_8      *              1             0             1 
    89 u_2_7_8      *              0             0             1 

Integer feasibility conditions:

KKT.PE: max.abs.err = 2.27e-13 on row 49
        max.rel.err = 1.09e-16 on row 173
        High quality

KKT.PB: max.abs.err = 2.27e-13 on row 171
        max.rel.err = 2.29e-16 on row 171
        High quality

End of output
